# Objective value = 146
x0,1_2 1
x0,1_10 0
x0,1_11 0
x0,1_13 0
x0,1_14 0
x0,1_15 0
x0,1_16 0
x0,1_21 0
x0,1_23 0
x0,1_25 0
x0,1_29 0
x0,1_34 0
x0,1_36 0
x0,1_39 0
x0,1_50 0
x0,2_2 0
x0,2_10 0
x0,2_11 0
x0,2_13 1
x0,2_14 0
x0,2_15 0
x0,2_16 0
x0,2_21 0
x0,2_23 0
x0,2_25 0
x0,2_29 0
x0,2_34 0
x0,2_36 0
x0,2_39 0
x0,2_50 0
x0,3_2 0
x0,3_10 0
x0,3_11 0
x0,3_13 0
x0,3_14 0
x0,3_15 0
x0,3_16 0
x0,3_21 0
x0,3_23 0
x0,3_25 0
x0,3_29 0
x0,3_34 0
x0,3_36 0
x0,3_39 0
x0,3_50 0
x0,4_2 0
x0,4_10 0
x0,4_11 0
x0,4_13 0
x0,4_14 0
x0,4_15 0
x0,4_16 0
x0,4_21 0
x0,4_23 1
x0,4_25 0
x0,4_29 0
x0,4_34 0
x0,4_36 0
x0,4_39 0
x0,4_50 0
x0,5_2 0
x0,5_10 0
x0,5_11 0
x0,5_13 0
x0,5_14 0
x0,5_15 0
x0,5_16 0
x0,5_21 0
x0,5_23 0
x0,5_25 0
x0,5_29 0
x0,5_34 0
x0,5_36 0
x0,5_39 0
x0,5_50 0
x0,6_2 0
x0,6_10 0
x0,6_11 0
x0,6_13 0
x0,6_14 0
x0,6_15 0
x0,6_16 0
x0,6_21 0
x0,6_23 0
x0,6_25 0
x0,6_29 0
x0,6_34 0
x0,6_36 0
x0,6_39 0
x0,6_50 0
x1,2_2 0
x1,2_10 0
x1,2_11 1
x1,2_13 0
x1,2_14 0
x1,2_15 0
x1,2_16 0
x1,2_21 0
x1,2_23 0
x1,2_25 0
x1,2_29 0
x1,2_34 0
x1,2_36 0
x1,2_39 0
x1,2_50 0
x1,3_2 0
x1,3_10 0
x1,3_11 0
x1,3_13 0
x1,3_14 0
x1,3_15 0
x1,3_16 1
x1,3_21 0
x1,3_23 0
x1,3_25 0
x1,3_29 0
x1,3_34 0
x1,3_36 0
x1,3_39 0
x1,3_50 0
x1,4_2 0
x1,4_10 0
x1,4_11 0
x1,4_13 0
x1,4_14 0
x1,4_15 0
x1,4_16 0
x1,4_21 1
x1,4_23 0
x1,4_25 0
x1,4_29 0
x1,4_34 0
x1,4_36 0
x1,4_39 0
x1,4_50 0
x1,5_2 0
x1,5_10 0
x1,5_11 0
x1,5_13 0
x1,5_14 0
x1,5_15 0
x1,5_16 0
x1,5_21 0
x1,5_23 0
x1,5_25 0
x1,5_29 0
x1,5_34 0
x1,5_36 1
x1,5_39 0
x1,5_50 0
x1,6_2 0
x1,6_10 0
x1,6_11 0
x1,6_13 0
x1,6_14 0
x1,6_15 0
x1,6_16 0
x1,6_21 0
x1,6_23 0
x1,6_25 0
x1,6_29 0
x1,6_34 0
x1,6_36 0
x1,6_39 0
x1,6_50 1
x2,3_2 0
x2,3_10 0
x2,3_11 0
x2,3_13 0
x2,3_14 0
x2,3_15 0
x2,3_16 0
x2,3_21 0
x2,3_23 0
x2,3_25 0
x2,3_29 0
x2,3_34 0
x2,3_36 0
x2,3_39 0
x2,3_50 0
x2,4_2 0
x2,4_10 1
x2,4_11 0
x2,4_13 0
x2,4_14 0
x2,4_15 0
x2,4_16 0
x2,4_21 0
x2,4_23 0
x2,4_25 0
x2,4_29 0
x2,4_34 0
x2,4_36 0
x2,4_39 0
x2,4_50 0
x2,5_2 0
x2,5_10 0
x2,5_11 0
x2,5_13 0
x2,5_14 0
x2,5_15 0
x2,5_16 0
x2,5_21 0
x2,5_23 0
x2,5_25 1
x2,5_29 0
x2,5_34 0
x2,5_36 0
x2,5_39 0
x2,5_50 0
x2,6_2 0
x2,6_10 0
x2,6_11 0
x2,6_13 0
x2,6_14 0
x2,6_15 0
x2,6_16 0
x2,6_21 0
x2,6_23 0
x2,6_25 0
x2,6_29 0
x2,6_34 0
x2,6_36 0
x2,6_39 1
x2,6_50 0
x3,4_2 0
x3,4_10 0
x3,4_11 0
x3,4_13 0
x3,4_14 0
x3,4_15 0
x3,4_16 0
x3,4_21 0
x3,4_23 0
x3,4_25 0
x3,4_29 0
x3,4_34 0
x3,4_36 0
x3,4_39 0
x3,4_50 0
x3,5_2 0
x3,5_10 0
x3,5_11 0
x3,5_13 0
x3,5_14 0
x3,5_15 0
x3,5_16 0
x3,5_21 0
x3,5_23 0
x3,5_25 0
x3,5_29 0
x3,5_34 0
x3,5_36 0
x3,5_39 0
x3,5_50 0
x3,6_2 0
x3,6_10 0
x3,6_11 0
x3,6_13 0
x3,6_14 0
x3,6_15 0
x3,6_16 0
x3,6_21 0
x3,6_23 0
x3,6_25 0
x3,6_29 0
x3,6_34 1
x3,6_36 0
x3,6_39 0
x3,6_50 0
x4,5_2 0
x4,5_10 0
x4,5_11 0
x4,5_13 0
x4,5_14 0
x4,5_15 1
x4,5_16 0
x4,5_21 0
x4,5_23 0
x4,5_25 0
x4,5_29 0
x4,5_34 0
x4,5_36 0
x4,5_39 0
x4,5_50 0
x4,6_2 0
x4,6_10 0
x4,6_11 0
x4,6_13 0
x4,6_14 0
x4,6_15 0
x4,6_16 0
x4,6_21 0
x4,6_23 0
x4,6_25 0
x4,6_29 1
x4,6_34 0
x4,6_36 0
x4,6_39 0
x4,6_50 0
x5,6_2 0
x5,6_10 0
x5,6_11 0
x5,6_13 0
x5,6_14 1
x5,6_15 0
x5,6_16 0
x5,6_21 0
x5,6_23 0
x5,6_25 0
x5,6_29 0
x5,6_34 0
x5,6_36 0
x5,6_39 0
x5,6_50 0
p0 0
p1 2
p2 13
p3 18
p4 23
p5 38
p6 52
